c pcminimize - minimizing a CNF with respect to propagation completeness by iterative removing of absorbed clauses.
c Petr Kucera, 2016-2021
c Version 2.7, revision 59, git hash 4910a71, date 2024-07-16 20:17:42 +0200
p cnf 706 817
310 -311 0
313 -314 0
316 -317 0
319 -320 0
322 -323 0
325 -326 0
328 -329 0
331 -332 0
334 -335 0
337 -338 0
340 -341 0
343 -344 0
346 -347 0
349 -350 0
352 -353 0
355 -356 0
358 -359 0
361 -362 0
364 -365 0
367 -368 0
370 -371 0
373 -374 0
376 -377 0
379 -380 0
382 -383 0
385 -386 0
388 -389 0
391 -392 0
394 -395 0
-3 -397 0
35 -397 0
3 -398 0
-35 -398 0
397 398 -399 0
399 -400 0
19 -400 0
3 -401 0
35 -401 0
-3 -402 0
-35 -402 0
401 402 -403 0
403 -404 0
-19 -404 0
406 -407 0
409 -410 0
412 -413 0
415 -416 0
418 -419 0
421 -422 0
424 -425 0
427 -428 0
430 -431 0
433 -434 0
436 -437 0
439 -440 0
442 -443 0
445 -446 0
448 -449 0
451 -452 0
454 -455 0
457 -458 0
460 -461 0
463 -464 0
466 -467 0
469 -470 0
472 -473 0
475 -476 0
478 -479 0
481 -482 0
484 -485 0
487 -488 0
490 -491 0
493 -494 0
496 -497 0
-37 -499 0
21 -499 0
37 -500 0
-21 -500 0
499 500 -501 0
501 -502 0
5 -502 0
37 -503 0
21 -503 0
-37 -504 0
-21 -504 0
503 504 -505 0
505 -506 0
-5 -506 0
-46 -508 0
30 -508 0
46 -509 0
-30 -509 0
508 509 -510 0
510 -511 0
14 -511 0
46 -512 0
30 -512 0
-46 -513 0
-30 -513 0
512 513 -514 0
514 -515 0
-14 -515 0
-2 -517 0
34 -517 0
2 -518 0
-34 -518 0
517 518 -519 0
519 -520 0
18 -520 0
2 -521 0
34 -521 0
-2 -522 0
-34 -522 0
521 522 -523 0
523 -524 0
-18 -524 0
-31 -526 0
15 -526 0
31 -527 0
-15 -527 0
526 527 -528 0
528 -529 0
47 -529 0
31 -530 0
15 -530 0
-31 -531 0
-15 -531 0
530 531 -532 0
532 -533 0
-47 -533 0
-38 -535 0
6 -535 0
38 -536 0
-6 -536 0
535 536 -537 0
537 -538 0
22 -538 0
38 -539 0
6 -539 0
-38 -540 0
-6 -540 0
539 540 -541 0
541 -542 0
-22 -542 0
-40 -544 0
24 -544 0
40 -545 0
-24 -545 0
544 545 -546 0
546 -547 0
8 -547 0
40 -548 0
24 -548 0
-40 -549 0
-24 -549 0
548 549 -550 0
550 -551 0
-8 -551 0
-7 -553 0
23 -553 0
7 -554 0
-23 -554 0
553 554 -555 0
555 -556 0
39 -556 0
7 -557 0
23 -557 0
-7 -558 0
-23 -558 0
557 558 -559 0
559 -560 0
-39 -560 0
-32 -562 0
16 -562 0
32 -563 0
-16 -563 0
562 563 -564 0
564 -565 0
48 -565 0
32 -566 0
16 -566 0
-32 -567 0
-16 -567 0
566 567 -568 0
568 -569 0
-48 -569 0
-20 -571 0
4 -571 0
20 -572 0
-4 -572 0
571 572 -573 0
573 -574 0
36 -574 0
20 -575 0
4 -575 0
-20 -576 0
-4 -576 0
575 576 -577 0
577 -578 0
-36 -578 0
-1 -580 0
17 -580 0
1 -581 0
-17 -581 0
580 581 -582 0
582 -583 0
33 -583 0
1 -584 0
17 -584 0
-1 -585 0
-17 -585 0
584 585 -586 0
586 -587 0
-33 -587 0
-26 -589 0
42 -589 0
26 -590 0
-42 -590 0
589 590 -591 0
591 -592 0
10 -592 0
26 -593 0
42 -593 0
-26 -594 0
-42 -594 0
593 594 -595 0
595 -596 0
-10 -596 0
-28 -598 0
44 -598 0
28 -599 0
-44 -599 0
598 599 -600 0
600 -601 0
12 -601 0
28 -602 0
44 -602 0
-28 -603 0
-44 -603 0
602 603 -604 0
604 -605 0
-12 -605 0
-27 -607 0
11 -607 0
27 -608 0
-11 -608 0
607 608 -609 0
609 -610 0
43 -610 0
27 -611 0
11 -611 0
-27 -612 0
-11 -612 0
611 612 -613 0
613 -614 0
-43 -614 0
-41 -616 0
9 -616 0
41 -617 0
-9 -617 0
616 617 -618 0
618 -619 0
25 -619 0
41 -620 0
9 -620 0
-41 -621 0
-9 -621 0
620 621 -622 0
622 -623 0
-25 -623 0
-29 -625 0
45 -625 0
29 -626 0
-45 -626 0
625 626 -627 0
627 -628 0
13 -628 0
29 -629 0
45 -629 0
-29 -630 0
-45 -630 0
629 630 -631 0
631 -632 0
-13 -632 0
405 -634 0
507 -634 0
516 -634 0
525 -634 0
534 -634 0
543 -634 0
552 -634 0
561 -634 0
570 -634 0
579 -634 0
588 -634 0
597 -634 0
606 -634 0
615 -634 0
624 -634 0
633 -634 0
637 -706 0
638 -706 0
639 -706 0
640 -706 0
641 -706 0
642 -706 0
643 -706 0
644 -706 0
645 -706 0
646 -706 0
647 -706 0
648 -706 0
649 -706 0
650 -706 0
651 -706 0
652 -706 0
653 -706 0
654 -706 0
655 -706 0
656 -706 0
657 -706 0
658 -706 0
659 -706 0
660 -706 0
661 -706 0
662 -706 0
663 -706 0
664 -706 0
665 -706 0
666 -706 0
667 -706 0
668 -706 0
669 -706 0
670 -706 0
671 -706 0
672 -706 0
673 -706 0
674 -706 0
675 -706 0
676 -706 0
677 -706 0
678 -706 0
679 -706 0
680 -706 0
681 -706 0
682 -706 0
683 -706 0
684 -706 0
685 -706 0
686 -706 0
687 -706 0
688 -706 0
689 -706 0
690 -706 0
691 -706 0
692 -706 0
693 -706 0
694 -706 0
695 -706 0
696 -706 0
697 -706 0
698 -706 0
699 -706 0
700 -706 0
701 -706 0
702 -706 0
703 -706 0
704 -706 0
705 -706 0
-81 0
-82 0
-83 0
-84 0
-85 0
-86 0
-87 0
-88 0
-89 0
-90 0
-91 0
-92 0
-93 0
-94 0
-95 0
-96 0
-97 0
-98 0
-99 0
-100 0
-101 0
-102 0
-103 0
-104 0
-105 0
-106 0
-107 0
-108 0
-109 0
-110 0
-111 0
-112 0
113 0
-146 0
-147 0
-148 0
-149 0
-150 0
-151 0
-152 0
-153 0
-154 0
-155 0
-156 0
-157 0
-158 0
-159 0
-160 0
-161 0
-162 0
-163 0
-164 0
-165 0
-166 0
-167 0
-168 0
-169 0
-170 0
-171 0
-172 0
-173 0
-174 0
-175 0
-176 0
-177 0
178 0
-211 0
-212 0
-213 0
-214 0
-215 0
-216 0
-217 0
-218 0
-219 0
-220 0
-221 0
-222 0
-223 0
-224 0
-225 0
-226 0
-227 0
-228 0
-229 0
-230 0
-231 0
-232 0
-233 0
-234 0
-235 0
-236 0
-237 0
-238 0
-239 0
-240 0
-241 0
-242 0
243 0
-276 0
-277 0
-278 0
-279 0
-280 0
-281 0
-282 0
-283 0
-284 0
-285 0
-286 0
-287 0
-288 0
-289 0
-290 0
-291 0
-292 0
-293 0
-294 0
-295 0
-296 0
-297 0
-298 0
-299 0
-300 0
-301 0
-302 0
-303 0
-304 0
-305 0
-306 0
-307 0
308 0
-636 706 0
13 632 0
-630 631 0
-629 631 0
-13 628 0
-626 627 0
45 626 630 0
-625 627 0
-45 625 629 0
29 625 630 0
-622 623 0
-621 622 0
-620 622 0
-25 619 0
-618 619 0
-617 618 0
-41 617 620 0
-616 618 0
-9 616 620 0
41 616 621 0
-613 614 0
-612 613 0
-611 613 0
-609 610 0
-608 609 0
11 608 612 0
-11 607 611 0
27 607 612 0
12 605 0
-603 604 0
-602 604 0
-12 601 0
-599 600 0
-598 600 0
-44 598 602 0
28 598 603 0
-438 440 0
-437 438 0
-29 626 629 0
-435 437 0
-432 434 0
-431 432 0
-426 428 0
-423 425 0
19 404 0
-607 609 0
-422 423 0
-566 568 0
-417 419 0
42 590 594 0
-21 499 503 0
-413 414 0
-522 523 0
-411 413 0
-408 410 0
-113 407 0
-401 403 0
-399 400 0
-398 399 0
-27 608 611 0
109 435 0
-357 359 0
-510 511 0
-16 562 566 0
-393 395 0
-392 393 0
43 614 0
-390 392 0
-500 501 0
-387 389 0
-384 386 0
-397 399 0
-19 400 0
-351 353 0
-513 514 0
26 589 594 0
-555 556 0
-378 380 0
-42 589 593 0
-604 605 0
-375 377 0
-419 420 0
38 535 540 0
-333 335 0
-28 599 602 0
110 408 0
-429 431 0
3 397 402 0
-22 538 0
-530 532 0
-327 329 0
-18 520 0
-324 326 0
82 417 0
-318 320 0
-571 573 0
17 581 585 0
-26 590 593 0
-312 314 0
288 387 0
86 447 0
-532 533 0
279 315 0
-330 332 0
-450 452 0
-308 311 0
-540 541 0
7 553 558 0
-563 564 0
-517 519 0
282 321 0
-354 356 0
-20 572 575 0
-5 502 0
-503 505 0
301 318 0
32 562 567 0
-315 317 0
24 545 549 0
307 336 0
-456 458 0
-311 312 0
-336 338 0
106 411 0
286 396 0
-356 357 0
-339 341 0
-550 551 0
87 468 0
-366 368 0
-353 354 0
-420 422 0
-590 591 0
-46 509 512 0
304 342 0
94 444 0
287 390 0
5 506 0
-593 595 0
-360 362 0
281 345 0
91 450 0
-345 347 0
95 453 0
10 596 0
-348 350 0
96 477 0
83 429 0
-414 416 0
-548 550 0
284 339 0
-631 632 0
-359 360 0
81 495 0
15 527 531 0
-464 465 0
-635 636 0
92 474 0
-575 577 0
14 515 0
-544 546 0
-363 365 0
-321 323 0
-554 555 0
-369 371 0
-403 404 0
-372 374 0
-381 383 0
306 351 0
37 499 504 0
99 441 0
18 524 0
-441 443 0
-36 574 0
-585 586 0
-444 446 0
-34 517 521 0
296 384 0
-589 591 0
-3 398 401 0
-447 449 0
-8 547 0
-33 583 0
305 348 0
36 578 0
-37 500 503 0
-453 455 0
-509 510 0
108 456 0
101 459 0
-459 461 0
-470 471 0
294 381 0
-471 473 0
9 617 621 0
-514 515 0
35 398 402 0
-462 464 0
-24 544 548 0
-465 467 0
297 375 0
-43 610 0
-468 470 0
302 363 0
33 587 0
112 489 0
-474 476 0
-38 536 539 0
-586 587 0
-477 479 0
-582 583 0
303 369 0
34 518 522 0
-479 480 0
285 378 0
-480 482 0
-562 564 0
104 483 0
-483 485 0
-600 601 0
-486 488 0
40 544 549 0
84 462 0
-489 491 0
100 492 0
-492 494 0
-495 497 0
-501 502 0
103 498 0
-498 634 0
-499 501 0
21 500 504 0
-504 505 0
-627 628 0
-505 506 0
46 508 513 0
-30 508 512 0
-508 510 0
30 509 513 0
-14 511 0
102 486 0
-512 514 0
44 599 603 0
2 517 522 0
-2 518 521 0
-518 519 0
-6 535 539 0
-519 520 0
-521 523 0
-523 524 0
-15 526 530 0
280 324 0
-48 565 0
290 333 0
-526 528 0
-31 527 530 0
-527 528 0
-528 529 0
289 330 0
-47 529 0
111 426 0
-531 532 0
47 533 0
-535 537 0
-365 366 0
6 536 540 0
-536 537 0
-537 538 0
-564 565 0
39 560 0
-539 541 0
177 635 0
25 623 0
-541 542 0
22 542 0
299 372 0
-4 571 575 0
-40 545 548 0
-545 546 0
-546 547 0
31 526 531 0
-549 550 0
8 551 0
-402 403 0
-23 553 557 0
-553 555 0
-7 554 557 0
23 554 558 0
-35 397 401 0
-557 559 0
-558 559 0
-559 560 0
-32 563 566 0
16 563 567 0
-567 568 0
48 569 0
-568 569 0
293 327 0
20 571 576 0
4 572 576 0
-572 573 0
-573 574 0
-576 577 0
-577 578 0
1 580 585 0
-342 344 0
-17 580 584 0
-580 582 0
-39 556 0
-1 581 584 0
-581 582 0
-584 586 0
-591 592 0
-10 592 0
-594 595 0
-595 596 0
